certificates/rado_a14_c176_N50.cnf
c Rad2 upper bound instance: x1 + 14*x2 - x3 = 176, interval [1,50]
p cnf 50 352
1 7 13 0
-1 -7 -13 0
1 14 21 0
-1 -14 -21 0
1 15 35 0
-1 -15 -35 0
1 16 49 0
-1 -16 -49 0
2 8 13 0
-2 -8 -13 0
2 14 22 0
-2 -14 -22 0
2 15 36 0
-2 -15 -36 0
2 16 50 0
-2 -16 -50 0
3 9 13 0
-3 -9 -13 0
3 14 23 0
-3 -14 -23 0
3 15 37 0
-3 -15 -37 0
4 10 13 0
-4 -10 -13 0
4 14 24 0
-4 -14 -24 0
4 15 38 0
-4 -15 -38 0
5 11 13 0
-5 -11 -13 0
5 14 25 0
-5 -14 -25 0
5 15 39 0
-5 -15 -39 0
6 12 13 0
-6 -12 -13 0
6 14 26 0
-6 -14 -26 0
6 15 40 0
-6 -15 -40 0
7 13 0
-7 -13 0
7 14 27 0
-7 -14 -27 0
7 15 41 0
-7 -15 -41 0
8 13 14 0
-8 -13 -14 0
8 14 28 0
-8 -14 -28 0
8 15 42 0
-8 -15 -42 0
1 9 12 0
-1 -9 -12 0
9 13 15 0
-9 -13 -15 0
9 14 29 0
-9 -14 -29 0
9 15 43 0
-9 -15 -43 0
2 10 12 0
-2 -10 -12 0
10 13 16 0
-10 -13 -16 0
10 14 30 0
-10 -14 -30 0
10 15 44 0
-10 -15 -44 0
3 11 12 0
-3 -11 -12 0
11 13 17 0
-11 -13 -17 0
11 14 31 0
-11 -14 -31 0
11 15 45 0
-11 -15 -45 0
4 12 0
-4 -12 0
12 13 18 0
-12 -13 -18 0
12 14 32 0
-12 -14 -32 0
12 15 46 0
-12 -15 -46 0
5 12 13 0
-5 -12 -13 0
13 19 0
-13 -19 0
13 14 33 0
-13 -14 -33 0
13 15 47 0
-13 -15 -47 0
6 12 14 0
-6 -12 -14 0
13 14 20 0
-13 -14 -20 0
14 34 0
-14 -34 0
14 15 48 0
-14 -15 -48 0
7 12 15 0
-7 -12 -15 0
13 15 21 0
-13 -15 -21 0
14 15 35 0
-14 -15 -35 0
15 49 0
-15 -49 0
8 12 16 0
-8 -12 -16 0
13 16 22 0
-13 -16 -22 0
14 16 36 0
-14 -16 -36 0
15 16 50 0
-15 -16 -50 0
9 12 17 0
-9 -12 -17 0
13 17 23 0
-13 -17 -23 0
14 17 37 0
-14 -17 -37 0
10 12 18 0
-10 -12 -18 0
13 18 24 0
-13 -18 -24 0
14 18 38 0
-14 -18 -38 0
11 12 19 0
-11 -12 -19 0
13 19 25 0
-13 -19 -25 0
14 19 39 0
-14 -19 -39 0
12 20 0
-12 -20 0
13 20 26 0
-13 -20 -26 0
14 20 40 0
-14 -20 -40 0
12 13 21 0
-12 -13 -21 0
13 21 27 0
-13 -21 -27 0
14 21 41 0
-14 -21 -41 0
12 14 22 0
-12 -14 -22 0
13 22 28 0
-13 -22 -28 0
14 22 42 0
-14 -22 -42 0
1 11 23 0
-1 -11 -23 0
12 15 23 0
-12 -15 -23 0
13 23 29 0
-13 -23 -29 0
14 23 43 0
-14 -23 -43 0
2 11 24 0
-2 -11 -24 0
12 16 24 0
-12 -16 -24 0
13 24 30 0
-13 -24 -30 0
14 24 44 0
-14 -24 -44 0
3 11 25 0
-3 -11 -25 0
12 17 25 0
-12 -17 -25 0
13 25 31 0
-13 -25 -31 0
14 25 45 0
-14 -25 -45 0
4 11 26 0
-4 -11 -26 0
12 18 26 0
-12 -18 -26 0
13 26 32 0
-13 -26 -32 0
14 26 46 0
-14 -26 -46 0
5 11 27 0
-5 -11 -27 0
12 19 27 0
-12 -19 -27 0
13 27 33 0
-13 -27 -33 0
14 27 47 0
-14 -27 -47 0
6 11 28 0
-6 -11 -28 0
12 20 28 0
-12 -20 -28 0
13 28 34 0
-13 -28 -34 0
14 28 48 0
-14 -28 -48 0
7 11 29 0
-7 -11 -29 0
12 21 29 0
-12 -21 -29 0
13 29 35 0
-13 -29 -35 0
14 29 49 0
-14 -29 -49 0
8 11 30 0
-8 -11 -30 0
12 22 30 0
-12 -22 -30 0
13 30 36 0
-13 -30 -36 0
14 30 50 0
-14 -30 -50 0
9 11 31 0
-9 -11 -31 0
12 23 31 0
-12 -23 -31 0
13 31 37 0
-13 -31 -37 0
10 11 32 0
-10 -11 -32 0
12 24 32 0
-12 -24 -32 0
13 32 38 0
-13 -32 -38 0
11 33 0
-11 -33 0
12 25 33 0
-12 -25 -33 0
13 33 39 0
-13 -33 -39 0
11 12 34 0
-11 -12 -34 0
12 26 34 0
-12 -26 -34 0
13 34 40 0
-13 -34 -40 0
11 13 35 0
-11 -13 -35 0
12 27 35 0
-12 -27 -35 0
13 35 41 0
-13 -35 -41 0
11 14 36 0
-11 -14 -36 0
12 28 36 0
-12 -28 -36 0
13 36 42 0
-13 -36 -42 0
1 10 37 0
-1 -10 -37 0
11 15 37 0
-11 -15 -37 0
12 29 37 0
-12 -29 -37 0
13 37 43 0
-13 -37 -43 0
2 10 38 0
-2 -10 -38 0
11 16 38 0
-11 -16 -38 0
12 30 38 0
-12 -30 -38 0
13 38 44 0
-13 -38 -44 0
3 10 39 0
-3 -10 -39 0
11 17 39 0
-11 -17 -39 0
12 31 39 0
-12 -31 -39 0
13 39 45 0
-13 -39 -45 0
4 10 40 0
-4 -10 -40 0
11 18 40 0
-11 -18 -40 0
12 32 40 0
-12 -32 -40 0
13 40 46 0
-13 -40 -46 0
5 10 41 0
-5 -10 -41 0
11 19 41 0
-11 -19 -41 0
12 33 41 0
-12 -33 -41 0
13 41 47 0
-13 -41 -47 0
6 10 42 0
-6 -10 -42 0
11 20 42 0
-11 -20 -42 0
12 34 42 0
-12 -34 -42 0
13 42 48 0
-13 -42 -48 0
7 10 43 0
-7 -10 -43 0
11 21 43 0
-11 -21 -43 0
12 35 43 0
-12 -35 -43 0
13 43 49 0
-13 -43 -49 0
8 10 44 0
-8 -10 -44 0
11 22 44 0
-11 -22 -44 0
12 36 44 0
-12 -36 -44 0
13 44 50 0
-13 -44 -50 0
9 10 45 0
-9 -10 -45 0
11 23 45 0
-11 -23 -45 0
12 37 45 0
-12 -37 -45 0
10 46 0
-10 -46 0
11 24 46 0
-11 -24 -46 0
12 38 46 0
-12 -38 -46 0
10 11 47 0
-10 -11 -47 0
11 25 47 0
-11 -25 -47 0
12 39 47 0
-12 -39 -47 0
10 12 48 0
-10 -12 -48 0
11 26 48 0
-11 -26 -48 0
12 40 48 0
-12 -40 -48 0
10 13 49 0
-10 -13 -49 0
11 27 49 0
-11 -27 -49 0
12 41 49 0
-12 -41 -49 0
10 14 50 0
-10 -14 -50 0
11 28 50 0
-11 -28 -50 0
12 42 50 0
-12 -42 -50 0
