certificates/rado_a14_c176_N50.drat
10 15 -50 0
-49 -50 0
46 -50 0
-50 0
-46 0
10 0
15 0
-49 0
-44 0
13 0
-7 0
-19 0
-4 0
-47 0
-21 0
-9 0
-16 0
12 0
1 0
2 0
-20 0
0
